50
8745

980 363
997 911
199 179
830 990
505 860
37 666
460 306
229 483
177 763
693 238
88 36
498 451
598 680
1000 885
832 656
264 533
390 503
263 575
99 542
782 406
35 558
279 304
631 739
294 232
994 616
680 32
551 84
164 830
832 409
473 207
53 72
520 393
679 537
157 457
490 93
116 440
51 884
794 997
767 828
434 649
342 438
359 523
192 78
798 115
891 867
643 686
52 786
791 739
228 452
838 254
